NAME 
ROWS
 N  OBJ
 L  R0      
 E  R1      
 E  R2      
 E  R3      
 E  R4      
 E  R5      
 E  R6      
 E  R7      
 E  R8      
 E  R9      
 E  R10     
 E  R11     
 E  R12     
 E  R13     
 E  R14     
 E  R15     
 E  R16     
 E  R17     
 E  R18     
 E  R19     
 E  R20     
 E  R21     
 E  R22     
 E  R23     
 E  R24     
 E  R25     
 E  R26     
 E  R27     
 E  R28     
 E  R29     
 E  R30     
 E  R31     
 E  R32     
 E  R33     
 E  R34     
 E  R35     
 E  R36     
 E  R37     
 E  R38     
 E  R39     
 E  R40     
COLUMNS
    MARKER    'MARKER'                 'INTORG'
    I0(3)     OBJ       121
    I0(3)     R0        -157
    I0(3)     R1        18
    I0(3)     R40       1
    I1(3)     OBJ       66
    I1(3)     R0        70
    I1(3)     R2        5
    I1(3)     R40       1
    I2(3)     OBJ       -83
    I2(3)     R0        -8
    I2(3)     R3        11
    I2(3)     R40       1
    I3(3)     OBJ       -69
    I3(3)     R0        -141
    I3(3)     R4        7
    I3(3)     R40       1
    I4(3)     OBJ       127
    I4(3)     R0        -152
    I4(3)     R5        19
    I4(3)     R40       1
    I5(3)     OBJ       45
    I5(3)     R0        171
    I5(3)     R6        13
    I5(3)     R40       1
    I6(3)     OBJ       -106
    I6(3)     R0        -66
    I6(3)     R7        14
    I6(3)     R40       1
    I7(3)     OBJ       -16
    I7(3)     R0        -34
    I7(3)     R8        3
    I7(3)     R40       1
    I8(3)     OBJ       -77
    I8(3)     R0        -179
    I8(3)     R9        9
    I8(3)     R40       1
    I9(3)     OBJ       188
    I9(3)     R0        -182
    I9(3)     R10       -1
    I9(3)     R40       1
    I10(3)    OBJ       147
    I10(3)    R0        79
    I10(3)    R11       13
    I10(3)    R40       1
    I11(3)    OBJ       -150
    I11(3)    R0        25
    I11(3)    R12       2
    I11(3)    R40       1
    I12(3)    OBJ       178
    I12(3)    R0        199
    I12(3)    R13       2
    I12(3)    R40       1
    I13(3)    OBJ       -193
    I13(3)    R0        -52
    I13(3)    R14       4
    I13(3)    R40       1
    I14(3)    OBJ       141
    I14(3)    R0        -57
    I14(3)    R15       5
    I14(3)    R40       1
    I15(3)    OBJ       132
    I15(3)    R0        -136
    I15(3)    R16       12
    I15(3)    R40       1
    I16(3)    OBJ       155
    I16(3)    R0        70
    I16(3)    R17       13
    I16(3)    R40       1
    I17(3)    OBJ       159
    I17(3)    R0        -29
    I17(3)    R18       9
    I17(3)    R40       1
    I18(3)    OBJ       165
    I18(3)    R0        115
    I18(3)    R19       18
    I18(3)    R40       1
    I19(3)    OBJ       -98
    I19(3)    R0        115
    I19(3)    R20       13
    I19(3)    R40       1
    I20(3)    OBJ       116
    I20(3)    R0        174
    I20(3)    R21       18
    I20(3)    R40       1
    I21(3)    OBJ       81
    I21(3)    R0        109
    I21(3)    R22       6
    I21(3)    R40       1
    I22(3)    OBJ       -154
    I22(3)    R0        13
    I22(3)    R23       7
    I22(3)    R40       1
    I23(3)    OBJ       22
    I23(3)    R0        -94
    I23(3)    R24       2
    I23(3)    R40       1
    I24(3)    OBJ       108
    I24(3)    R0        24
    I24(3)    R25       15
    I24(3)    R40       1
    I25(3)    OBJ       41
    I25(3)    R0        132
    I25(3)    R26       6
    I25(3)    R40       1
    I26(3)    OBJ       52
    I26(3)    R0        11
    I26(3)    R27       16
    I26(3)    R40       1
    I27(3)    OBJ       32
    I27(3)    R0        72
    I27(3)    R28       9
    I27(3)    R40       1
    I28(3)    OBJ       94
    I28(3)    R0        -56
    I28(3)    R29       14
    I28(3)    R40       1
    I29(3)    OBJ       -119
    I29(3)    R0        -92
    I29(3)    R30       2
    I29(3)    R40       1
    I30(3)    OBJ       -35
    I30(3)    R0        104
    I30(3)    R31       3
    I30(3)    R40       1
    I31(3)    OBJ       -34
    I31(3)    R0        -23
    I31(3)    R32       15
    I31(3)    R40       1
    I32(3)    OBJ       -97
    I32(3)    R0        194
    I32(3)    R33       5
    I32(3)    R40       1
    I33(3)    OBJ       -194
    I33(3)    R0        171
    I33(3)    R34       6
    I33(3)    R40       1
    I34(3)    OBJ       -92
    I34(3)    R0        157
    I34(3)    R35       13
    I34(3)    R40       1
    I35(3)    OBJ       31
    I35(3)    R0        137
    I35(3)    R36       1
    I35(3)    R40       1
    I36(3)    OBJ       35
    I36(3)    R0        69
    I36(3)    R37       17
    I36(3)    R40       1
    I37(3)    OBJ       -79
    I37(3)    R0        182
    I37(3)    R38       5
    I37(3)    R40       1
    MARKER    'MARKER'                 'INTEND'
    C38(40)   OBJ       -4
    C38(40)   R0        -3
    C38(40)   R1        16
    C38(40)   R2        15
    C38(40)   R3        5
    C38(40)   R4        3
    C38(40)   R5        6
    C38(40)   R6        15
    C38(40)   R7        6
    C38(40)   R8        6
    C38(40)   R9        7
    C38(40)   R10       1
    C38(40)   R11       5
    C38(40)   R12       14
    C38(40)   R13       14
    C38(40)   R14       7
    C38(40)   R15       11
    C38(40)   R16       3
    C38(40)   R17       15
    C38(40)   R18       1
    C38(40)   R19       14
    C38(40)   R20       6
    C38(40)   R21       10
    C38(40)   R22       2
    C38(40)   R23       10
    C38(40)   R24       5
    C38(40)   R25       12
    C38(40)   R26       11
    C38(40)   R27       14
    C38(40)   R28       1
    C38(40)   R29       19
    C38(40)   R30       8
    C38(40)   R31       14
    C38(40)   R32       19
    C38(40)   R33       16
    C38(40)   R34       18
    C38(40)   R35       11
    C38(40)   R36       3
    C38(40)   R37       19
    C38(40)   R38       18
    C38(40)   R39       17
    C39(37)   OBJ       9
    C39(37)   R0        9
    C39(37)   R1        3
    C39(37)   R2        19
    C39(37)   R3        7
    C39(37)   R4        5
    C39(37)   R5        14
    C39(37)   R6        6
    C39(37)   R7        15
    C39(37)   R8        13
    C39(37)   R9        10
    C39(37)   R10       5
    C39(37)   R11       18
    C39(37)   R12       4
    C39(37)   R13       12
    C39(37)   R14       19
    C39(37)   R15       7
    C39(37)   R16       6
    C39(37)   R17       13
    C39(37)   R18       11
    C39(37)   R19       9
    C39(37)   R20       7
    C39(37)   R21       7
    C39(37)   R22       1
    C39(37)   R25       7
    C39(37)   R26       3
    C39(37)   R27       8
    C39(37)   R28       7
    C39(37)   R29       8
    C39(37)   R30       10
    C39(37)   R32       -1
    C39(37)   R33       7
    C39(37)   R34       8
    C39(37)   R35       -1
    C39(37)   R36       10
    C39(37)   R37       2
    C39(37)   R38       12
    C39(37)   R39       12
    C40(1)    R1        1
    C41(1)    R2        1
    C42(1)    R3        1
    C43(1)    R4        1
    C44(1)    R5        1
    C45(1)    R6        1
    C46(1)    R7        1
    C47(1)    R8        1
    C48(1)    R9        1
    C49(1)    R10       1
    C50(1)    R11       1
    C51(1)    R12       1
    C52(1)    R13       1
    C53(1)    R14       1
    C54(1)    R15       1
    C55(1)    R16       1
    C56(1)    R17       1
    C57(1)    R18       1
    C58(1)    R19       1
    C59(1)    R20       1
    C60(1)    R21       1
    C61(1)    R22       1
    C62(1)    R23       1
    C63(1)    R24       1
    C64(1)    R25       1
    C65(1)    R26       1
    C66(1)    R27       1
    C67(1)    R28       1
    C68(1)    R29       1
    C69(1)    R30       1
    C70(1)    R31       1
    C71(1)    R32       1
    C72(1)    R33       1
    C73(1)    R34       1
    C74(1)    R35       1
    C75(1)    R36       1
    C76(1)    R37       1
    C77(1)    R38       1
    C78(1)    R39       1
    C79(1)    R40       1
RHS
    RHS1      R0        4.5178947368421052e+02
    RHS1      R1        70
    RHS1      R2        53
    RHS1      R3        64
    RHS1      R4        84
    RHS1      R5        97
    RHS1      R6        77
    RHS1      R7        58
    RHS1      R8        52
    RHS1      R9        73
    RHS1      R10       88
    RHS1      R11       83
    RHS1      R12       91
    RHS1      R13       52
    RHS1      R14       78
    RHS1      R15       79
    RHS1      R16       87
    RHS1      R17       61
    RHS1      R18       63
    RHS1      R19       90
    RHS1      R20       81
    RHS1      R21       85
    RHS1      R22       76
    RHS1      R23       59
    RHS1      R24       90
    RHS1      R25       97
    RHS1      R26       60
    RHS1      R27       66
    RHS1      R28       58
    RHS1      R29       63
    RHS1      R30       80
    RHS1      R31       58
    RHS1      R32       80
    RHS1      R33       71
    RHS1      R34       83
    RHS1      R35       60
    RHS1      R36       55
    RHS1      R37       52
    RHS1      R38       73
    RHS1      R39       66
    RHS1      R40       12
BOUNDS
 UP BND1      I0(3)     1
 UP BND1      I1(3)     1
 UP BND1      I2(3)     1
 UP BND1      I3(3)     1
 UP BND1      I4(3)     1
 UP BND1      I5(3)     1
 UP BND1      I6(3)     1
 UP BND1      I7(3)     1
 UP BND1      I8(3)     1
 UP BND1      I9(3)     1
 UP BND1      I10(3)    1
 UP BND1      I11(3)    1
 UP BND1      I12(3)    1
 UP BND1      I13(3)    1
 UP BND1      I14(3)    1
 UP BND1      I15(3)    1
 UP BND1      I16(3)    1
 UP BND1      I17(3)    1
 UP BND1      I18(3)    1
 UP BND1      I19(3)    1
 UP BND1      I20(3)    1
 UP BND1      I21(3)    1
 UP BND1      I22(3)    1
 UP BND1      I23(3)    1
 UP BND1      I24(3)    1
 UP BND1      I25(3)    1
 UP BND1      I26(3)    1
 UP BND1      I27(3)    1
 UP BND1      I28(3)    1
 UP BND1      I29(3)    1
 UP BND1      I30(3)    1
 UP BND1      I31(3)    1
 UP BND1      I32(3)    1
 UP BND1      I33(3)    1
 UP BND1      I34(3)    1
 UP BND1      I35(3)    1
 UP BND1      I36(3)    1
 UP BND1      I37(3)    1
ENDATA
